certificates/rado_a6_c214_N36.cnf
c Rad2 upper bound instance: x1 + 6*x2 - x3 = 214, interval [1,36]
p cnf 36 272
1 3 36 0
-1 -3 -36 0
2 4 36 0
-2 -4 -36 0
3 5 36 0
-3 -5 -36 0
4 6 36 0
-4 -6 -36 0
1 5 35 0
-1 -5 -35 0
5 7 36 0
-5 -7 -36 0
2 6 35 0
-2 -6 -35 0
6 8 36 0
-6 -8 -36 0
3 7 35 0
-3 -7 -35 0
7 9 36 0
-7 -9 -36 0
4 8 35 0
-4 -8 -35 0
8 10 36 0
-8 -10 -36 0
5 9 35 0
-5 -9 -35 0
9 11 36 0
-9 -11 -36 0
6 10 35 0
-6 -10 -35 0
10 12 36 0
-10 -12 -36 0
1 11 34 0
-1 -11 -34 0
7 11 35 0
-7 -11 -35 0
11 13 36 0
-11 -13 -36 0
2 12 34 0
-2 -12 -34 0
8 12 35 0
-8 -12 -35 0
12 14 36 0
-12 -14 -36 0
3 13 34 0
-3 -13 -34 0
9 13 35 0
-9 -13 -35 0
13 15 36 0
-13 -15 -36 0
4 14 34 0
-4 -14 -34 0
10 14 35 0
-10 -14 -35 0
14 16 36 0
-14 -16 -36 0
5 15 34 0
-5 -15 -34 0
11 15 35 0
-11 -15 -35 0
15 17 36 0
-15 -17 -36 0
6 16 34 0
-6 -16 -34 0
12 16 35 0
-12 -16 -35 0
16 18 36 0
-16 -18 -36 0
1 17 33 0
-1 -17 -33 0
7 17 34 0
-7 -17 -34 0
13 17 35 0
-13 -17 -35 0
17 19 36 0
-17 -19 -36 0
2 18 33 0
-2 -18 -33 0
8 18 34 0
-8 -18 -34 0
14 18 35 0
-14 -18 -35 0
18 20 36 0
-18 -20 -36 0
3 19 33 0
-3 -19 -33 0
9 19 34 0
-9 -19 -34 0
15 19 35 0
-15 -19 -35 0
19 21 36 0
-19 -21 -36 0
4 20 33 0
-4 -20 -33 0
10 20 34 0
-10 -20 -34 0
16 20 35 0
-16 -20 -35 0
20 22 36 0
-20 -22 -36 0
5 21 33 0
-5 -21 -33 0
11 21 34 0
-11 -21 -34 0
17 21 35 0
-17 -21 -35 0
21 23 36 0
-21 -23 -36 0
6 22 33 0
-6 -22 -33 0
12 22 34 0
-12 -22 -34 0
18 22 35 0
-18 -22 -35 0
22 24 36 0
-22 -24 -36 0
1 23 32 0
-1 -23 -32 0
7 23 33 0
-7 -23 -33 0
13 23 34 0
-13 -23 -34 0
19 23 35 0
-19 -23 -35 0
23 25 36 0
-23 -25 -36 0
2 24 32 0
-2 -24 -32 0
8 24 33 0
-8 -24 -33 0
14 24 34 0
-14 -24 -34 0
20 24 35 0
-20 -24 -35 0
24 26 36 0
-24 -26 -36 0
3 25 32 0
-3 -25 -32 0
9 25 33 0
-9 -25 -33 0
15 25 34 0
-15 -25 -34 0
21 25 35 0
-21 -25 -35 0
25 27 36 0
-25 -27 -36 0
4 26 32 0
-4 -26 -32 0
10 26 33 0
-10 -26 -33 0
16 26 34 0
-16 -26 -34 0
22 26 35 0
-22 -26 -35 0
26 28 36 0
-26 -28 -36 0
5 27 32 0
-5 -27 -32 0
11 27 33 0
-11 -27 -33 0
17 27 34 0
-17 -27 -34 0
23 27 35 0
-23 -27 -35 0
27 29 36 0
-27 -29 -36 0
6 28 32 0
-6 -28 -32 0
12 28 33 0
-12 -28 -33 0
18 28 34 0
-18 -28 -34 0
24 28 35 0
-24 -28 -35 0
28 30 36 0
-28 -30 -36 0
1 29 31 0
-1 -29 -31 0
7 29 32 0
-7 -29 -32 0
13 29 33 0
-13 -29 -33 0
19 29 34 0
-19 -29 -34 0
25 29 35 0
-25 -29 -35 0
29 31 36 0
-29 -31 -36 0
2 30 31 0
-2 -30 -31 0
8 30 32 0
-8 -30 -32 0
14 30 33 0
-14 -30 -33 0
20 30 34 0
-20 -30 -34 0
26 30 35 0
-26 -30 -35 0
30 32 36 0
-30 -32 -36 0
3 31 0
-3 -31 0
9 31 32 0
-9 -31 -32 0
15 31 33 0
-15 -31 -33 0
21 31 34 0
-21 -31 -34 0
27 31 35 0
-27 -31 -35 0
31 33 36 0
-31 -33 -36 0
4 31 32 0
-4 -31 -32 0
10 32 0
-10 -32 0
16 32 33 0
-16 -32 -33 0
22 32 34 0
-22 -32 -34 0
28 32 35 0
-28 -32 -35 0
32 34 36 0
-32 -34 -36 0
5 31 33 0
-5 -31 -33 0
11 32 33 0
-11 -32 -33 0
17 33 0
-17 -33 0
23 33 34 0
-23 -33 -34 0
29 33 35 0
-29 -33 -35 0
33 35 36 0
-33 -35 -36 0
6 31 34 0
-6 -31 -34 0
12 32 34 0
-12 -32 -34 0
18 33 34 0
-18 -33 -34 0
24 34 0
-24 -34 0
30 34 35 0
-30 -34 -35 0
34 36 0
-34 -36 0
1 30 35 0
-1 -30 -35 0
7 31 35 0
-7 -31 -35 0
13 32 35 0
-13 -32 -35 0
19 33 35 0
-19 -33 -35 0
25 34 35 0
-25 -34 -35 0
31 35 0
-31 -35 0
2 30 36 0
-2 -30 -36 0
8 31 36 0
-8 -31 -36 0
14 32 36 0
-14 -32 -36 0
20 33 36 0
-20 -33 -36 0
26 34 36 0
-26 -34 -36 0
32 35 36 0
-32 -35 -36 0
