certificates/rado_a6_c214_N36.drat
-36 0
34 0
-24 0
22 0
26 0
-12 0
-32 0
-16 0
-35 0
10 0
8 0
14 0
0
